peakDumbCharging = 25900; 
Machine = anon_enum(16); 
machineSpeed = [3700,3700,3700,3700,3700,3700,3700,3700,3700,3700,3700,3700,3700,3700,3700,3700]; 
machineLoad = [3700,3700,3700,3700,3700,3700,3700,3700,3700,3700,3700,3700,3700,3700,3700,3700]; 
Car = anon_enum(36); 
demandCar = [27800,12200,2920,13360,7400,6080,1440,6200,6360,5240,4800,12640,1760,5080,16960,3440,7040,2480,3520,14360,4680,4680,9280,17040,3920,7320,2560,6680,4480,35120,80,5560,3040,3200,30200,7920]; 
arrivalCar = [63,63,61,61,60,60,59,57,57,55,55,54,53,53,52,52,51,51,48,48,48,46,45,44,44,44,42,41,40,39,39,38,37,36,31,31]; 
departureCar = [75,68,63,66,63,63,61,61,60,58,59,59,56,56,61,54,56,54,53,56,53,48,49,52,46,47,44,44,43,52,40,42,40,38,43,34]; 
